unknown
(:binary-propagations  3464
 :decisions            972
 :del-clause           664
 :final-checks         3
 :max-generation       1
 :max-memory           35.78
 :memory               24.13
 :mk-bool-var          5679
 :mk-clause            961
 :mk-clause-binary     4015
 :num-allocs           314382270
 :num-checks           1
 :propagations         3615
 :quant-instantiations 664
 :restarts             2
 :rlimit-count         1539966
 :time                 0.31)
